50, 1032
44, 49
88, 98
176, 196
30, 35
30, 35
36, 41
72, 82
144, 164
2, 7
4, 14
8, 28
2, 7
4, 9
8, 18
16, 36
12, 27
13, 18
26, 36
39, 54
19, 24
19, 24
20, 25
40, 50
60, 75
41, 46
82, 92
164, 184
16, 21
16, 21
39, 44
39, 44
1, 6
2, 12
3, 18
14, 19
28, 38
56, 76
14, 19
38, 43
76, 86
152, 172
17, 22
34, 44
68, 88
51, 66
22, 27
44, 54
22, 27
38, 43
76, 86
